{"OBJ_VAL": 512, "status": "optimal", "Name": "scp45", "time": "N/A", "X": [1, 2, 4, 5, 7, 8, 9, 11, 13, 14, 17, 18, 20, 23, 25, 27, 32, 33, 34, 37, 39, 40, 41, 42, 44, 45, 46, 48, 53, 54, 56, 66, 67, 71, 75, 80, 86, 98, 99, 104, 109, 120, 124, 125, 126, 136, 137, 146, 150, 155, 157, 159, 181, 182, 183, 190, 216, 223, 229, 297], "Pi": [-0.0, -0.0, -0.0, 4.0, 7.0, -0.0, 1.0, 1.0, -0.0, -0.0, 5.0, -0.0, 2.0, -0.0, 9.0, -0.0, 2.0, -0.0, -0.0, -0.0, 1.0, -0.0, 8.0, -0.0, -0.0, 7.0, -0.0, 1.0, 2.0, -0.0, 19.0, 3.0, 5.0, 4.0, -0.0, -0.0, -0.0, 1.0, 2.0, -0.0, -0.0, 5.0, 2.0, -0.0, 1.0, 4.0, -0.0, -0.0, -0.0, 16.0, 1.0, 5.0, -0.0, -0.0, -0.0, 10.0, 14.0, 16.0, 10.0, -0.0, 12.0, -0.0, -0.0, -0.0, 5.0, -0.0, 3.0, -0.0, -0.0, -0.0, -0.0, 2.0, 2.0, -0.0, 7.0, -0.0, 2.0, 4.0, 6.0, -0.0, 13.0, 9.0, 3.0, 9.0, -0.0, 2.0, -0.0, -0.0, -0.0, -0.0, -0.0, 1.0, 3.0, -0.0, 2.0, -0.0, 10.0, -0.0, -0.0, 4.0, 6.0, -0.0, -0.0, -0.0, 1.0, 4.0, 3.0, -0.0, -0.0, 5.0, 5.0, 18.0, -0.0, 15.0, 10.0, 16.0, -0.0, -0.0, -0.0, -0.0, -0.0, -0.0, 10.0, -0.0, 5.5, 1.0, -0.0, -0.0, 2.0, -0.0, -0.0, -0.0, -0.0, -0.0, 2.0, 5.0, -0.0, 1.0, -0.0, -0.0, -0.0, -0.0, 9.0, 8.0, -0.0, -0.0, -0.0, -0.0, 3.0, 3.0, 4.0, 5.0, -0.0, -0.0, -0.0, 5.0, -0.0, -0.0, 8.0, -0.0, 10.5, 6.5, -0.0, -0.0, -0.0, -0.0, -0.0, -0.0, 2.0, 1.0, -0.0, -0.0, -0.0, -0.0, 12.0, -0.0, -0.0, -0.0, -0.0, 9.0, 2.0, -0.0, -0.0, 1.0, -0.0, 11.5, -0.0, -0.0, -0.0, -0.0, -0.0, -0.0, 29.0, -0.0, -0.0, -0.0, 7.0, -0.0, 2.0, 1.0], "Dj": [1.0, 0.0, 0.0, 1.0, 0.0, 0.0, 1.0, 0.0, 0.0, 0.0, 0.0, 0.0, 0.0, -4.0, 0.0, 0.0, 0.0, 0.0, 0.0, 1.0, 0.0, 2.0, 0.0, 0.0, 3.0, 0.0, 3.0, 0.0, 3.0, 3.0, 3.0, 3.0, 0.0, 0.0, 0.0, 2.0, 0.0, 0.0, 4.0, 0.0, 0.0, 0.0, 0.0, 3.0, 0.0, 0.0, 0.0, 0.0, 0.0, 1.0, 0.0, 5.0, 4.0, 0.0, 0.0, 5.0, 0.0, 0.0, 0.0, 6.0, 6.0, 0.0, 0.0, 3.0, 6.0, 6.0, 0.0, 0.0, 7.0, 3.0, 2.0, 0.0, 3.0, 6.0, 0.0, 0.0, 1.0, 8.0, 8.0, 8.0, 0.0, 0.0, 3.0, 4.0, 8.0, 6.0, 0.0, 4.0, 6.0, 0.0, 9.0, 3.0, 8.0, 5.0, 8.0, 8.0, 9.0, 0.0, 0.0, 0.0, 0.0, 10.0, 0.0, 3.5, 0.0, 10.0, 3.0, 4.0, 10.0, 0.0, 0.0, 5.0, 5.0, 11.0, 1.0, 8.0, 11.0, 11.0, 10.0, 4.0, 0.0, 0.0, 3.0, 9.0, 0.0, 0.0, 0.0, 9.0, 2.0, 8.0, 0.0, 4.0, 13.0, 5.5, 7.0, 8.0, 0.0, 0.0, 10.0, 7.0, 14.0, 14.0, 5.0, 14.0, 13.0, 14.0, 0.0, 6.0, 4.5, 0.0, 0.0, 0.0, 8.0, 15.0, 5.5, 0.0, 12.0, 0.0, 11.0, 0.0, 12.0, 3.5, 12.0, 8.5, 15.0, 4.5, 14.0, 0.0, 7.0, 2.0, 2.0, 12.0, 0.0, 0.5, 17.0, 14.0, 17.0, 17.0, 11.0, 14.0, 15.0, 0.0, 0.0, 0.0, 16.0, 0.0, 16.0, 5.0, 17.0, 2.0, 0.0, 17.0, 1.0, 13.0, 19.0, 0.0, 19.0, 19.0, 0.0, 19.0, 17.0, 14.0, 9.0, 19.0, 15.0, 3.0, 8.0, 8.0, 8.0, 4.0, 11.0, 18.0, 20.0, 20.0, 11.0, 3.0, 0.0, 8.0, 18.0, 14.0, 19.0, 0.0, 21.0, 0.0, 12.0, 22.0, 18.0, 22.0, 22.0, 0.0, 22.0, 4.0, 13.0, 11.0, 23.0, 11.0, 5.0, 5.0, 20.0, 19.0, 15.0, 23.0, 24.0, 3.0, 0.0, 13.0, 0.0, 12.5, 24.0, 11.0, 16.0, 9.0, 19.0, 3.0, 16.0, 25.0, 14.0, 23.0, 22.0, 16.0, 22.0, 26.0, 21.0, 20.0, 26.0, 14.0, 23.0, 27.0, 7.5, 27.0, 18.0, 22.0, 25.0, 18.0, 16.0, 18.0, 1.0, 18.0, 28.0, 11.0, 23.0, 10.0, 28.0, 22.0, 27.0, 19.0, 26.0, 21.0, 19.0, 8.0, 25.0, 15.0, 26.0, 29.0, 29.0, 18.0, 26.0, 0.0, 22.0, 26.0, 0.0, 26.0, 25.0, 9.0, 26.0, 16.0, 20.0, 23.0, 5.0, 7.0, 26.0, 24.0, 15.0, 19.0, 18.0, 21.5, 27.0, 13.5, 27.0, 17.0, 22.0, 24.0, 30.0, 31.0, 30.0, 29.0, 17.5, 28.0, 24.0, 28.0, 18.0, 20.0, 24.0, 33.0, 22.0, 10.0, 19.0, 32.0, 33.0, 24.0, 12.0, 27.0, 34.0, 34.0, 34.0, 30.0, 34.0, 32.0, 34.0, 30.0, 2.0, 20.0, 26.0, 15.0, 35.0, 31.0, 29.0, 22.0, 30.0, 25.0, 35.0, 14.5, 35.0, 22.0, 19.0, 31.0, 32.0, 18.5, 30.0, 34.0, 13.0, 27.0, 24.0, 28.0, 31.0, 21.0, 34.0, 37.0, 8.0, 21.0, 20.0, 15.0, 38.0, 29.0, 29.0, 39.0, 18.0, 39.0, 38.0, 36.0, 31.0, 11.0, 29.0, 40.0, 39.0, 20.0, 30.0, 37.0, 39.0, 22.0, 39.0, 31.0, 40.0, 33.0, 26.0, 37.0, 38.0, 28.0, 15.5, 34.0, 39.0, 8.0, 38.0, 25.5, 38.0, 31.0, 36.0, 29.0, 42.0, 15.0, 2.0, 34.0, 31.0, 40.0, 39.0, 37.0, 42.0, 28.0, 43.0, 41.0, 6.5, 25.0, 24.0, 0.5, 29.0, 35.0, 35.0, 10.0, 36.0, 41.0, 34.0, 35.0, 43.0, 42.0, 35.0, 7.0, 44.0, 44.0, 37.5, 28.5, 35.0, 11.0, 28.5, 25.0, 28.5, 22.0, 29.0, 46.0, 38.5, 39.0, 35.0, 23.0, 44.0, 46.0, 46.0, 9.0, 16.0, 35.0, 23.0, 6.0, 47.0, 39.0, 47.0, 31.0, 32.0, 38.0, 47.0, 47.0, 40.0, 31.0, 39.0, 32.0, 47.0, 32.0, 41.0, 38.0, 32.0, 10.0, 43.0, 43.0, 48.0, 47.0, 40.0, 42.0, 44.0, 37.0, 49.0, 47.0, 42.0, 49.0, 47.0, 49.0, 49.0, 41.0, 33.0, 47.0, 24.0, 50.0, 39.5, 49.0, 47.0, 40.0, 50.0, 43.0, 45.0, 50.0, 35.0, 30.5, 26.0, 48.0, 45.5, 45.5, 48.0, 37.0, 43.0, 43.0, 51.0, 28.5, 37.0, 25.5, 34.0, 38.0, 14.0, 46.0, 48.0, 52.0, 48.0, 52.0, 28.0, 26.0, 53.0, 51.0, 36.0, 36.0, 47.0, 44.0, 22.0, 52.0, 43.0, 43.0, 48.0, 35.0, 54.0, 52.0, 45.0, 46.0, 46.0, 50.0, 53.0, 29.0, 39.0, 40.0, 53.0, 55.0, 44.0, 51.0, 51.0, 48.0, 49.0, 53.0, 41.0, 48.0, 34.0, 44.0, 45.0, 47.0, 47.0, 52.0, 57.0, 43.0, 58.0, 52.0, 56.0, 49.0, 54.0, 56.0, 58.0, 51.0, 50.0, 52.0, 54.0, 40.0, 57.0, 59.0, 56.0, 60.0, 52.0, 44.0, 40.0, 60.0, 53.0, 55.0, 44.0, 56.0, 58.0, 59.0, 58.0, 60.0, 54.0, 59.0, 60.0, 56.0, 55.0, 58.0, 51.0, 61.0, 47.0, 20.0, 58.0, 38.0, 49.0, 50.0, 60.0, 57.0, 45.5, 61.0, 33.0, 52.0, 55.0, 60.0, 58.0, 55.0, 62.0, 61.0, 63.0, 52.0, 63.0, 63.0, 31.0, 43.0, 54.0, 57.0, 62.0, 59.0, 44.0, 55.0, 57.0, 44.0, 64.0, 60.0, 48.0, 53.0, 49.0, 42.5, 62.0, 60.0, 65.0, 63.0, 65.0, 61.0, 55.0, 35.0, 53.5, 62.0, 49.0, 57.0, 48.0, 65.0, 56.0, 61.0, 54.0, 48.5, 15.5, 55.0, 59.0, 61.0, 65.0, 54.0, 51.0, 51.0, 58.0, 59.0, 58.0, 61.0, 62.0, 60.0, 65.0, 68.0, 63.0, 68.0, 68.0, 50.0, 59.0, 69.0, 69.0, 60.5, 64.0, 45.0, 55.0, 57.0, 65.0, 62.0, 59.5, 65.0, 70.0, 44.0, 69.0, 66.0, 59.0, 59.0, 70.0, 54.0, 68.0, 54.0, 51.0, 53.0, 53.5, 68.0, 54.0, 69.0, 71.0, 72.0, 72.0, 71.0, 72.0, 70.0, 60.0, 70.0, 67.0, 46.0, 71.0, 70.0, 73.0, 71.0, 72.0, 66.0, 47.0, 73.0, 49.0, 58.5, 63.0, 52.0, 68.0, 67.0, 56.5, 54.5, 62.0, 73.0, 73.0, 65.0, 75.0, 67.0, 71.0, 43.0, 65.5, 65.0, 69.0, 75.0, 35.0, 72.0, 60.5, 47.0, 65.0, 66.0, 67.0, 67.0, 75.0, 64.0, 75.0, 56.0, 63.0, 57.0, 67.0, 77.0, 77.0, 68.0, 73.0, 77.0, 69.0, 63.0, 77.0, 63.0, 75.0, 61.0, 65.5, 73.0, 58.0, 67.5, 66.0, 70.0, 59.0, 77.0, 61.0, 77.0, 63.0, 79.0, 72.0, 80.0, 64.0, 64.0, 70.0, 79.0, 60.0, 78.0, 66.0, 69.0, 80.0, 65.0, 76.0, 68.5, 68.0, 77.0, 49.0, 75.0, 65.0, 67.0, 78.0, 79.0, 73.0, 81.0, 49.0, 74.0, 49.0, 81.0, 76.0, 79.0, 81.0, 70.0, 74.0, 81.0, 48.0, 79.0, 80.0, 67.0, 58.0, 77.0, 66.0, 78.0, 66.0, 82.0, 80.0, 82.0, 50.0, 66.0, 79.0, 70.0, 77.0, 77.0, 82.0, 65.0, 62.0, 68.0, 74.0, 84.0, 84.0, 84.0, 84.0, 55.5, 81.0, 85.0, 83.0, 85.0, 68.5, 75.0, 78.0, 76.0, 71.5, 76.0, 85.0, 82.0, 70.0, 61.0, 71.0, 77.0, 86.0, 58.0, 86.0, 85.0, 87.0, 84.0, 74.0, 69.5, 67.0, 84.0, 88.0, 69.0, 59.0, 73.0, 86.0, 83.5, 78.0, 82.0, 59.5, 88.0, 75.0, 88.0, 89.0, 89.0, 88.0, 83.0, 63.0, 86.0, 64.0, 84.0, 82.0, 86.0, 78.0, 89.0, 86.0, 77.0, 81.0, 91.0, 81.0, 90.0, 62.0, 63.0, 92.0, 90.0, 89.0, 85.0, 80.0, 81.0, 86.5, 81.0, 80.0, 93.0, 85.0, 91.0, 82.0, 90.0, 94.0, 78.0, 87.0, 65.0, 68.0, 84.5, 81.0, 94.0, 74.5, 90.0, 94.0, 89.0, 89.0, 79.0, 69.0, 78.0, 82.0, 89.0, 84.0, 88.0, 88.5, 76.0, 93.0, 90.0, 84.0, 78.5, 96.0, 93.0, 90.0, 96.0, 94.0, 67.5, 92.0, 48.5, 97.0, 93.0, 86.0, 96.0, 94.0, 96.0, 91.0, 72.5, 98.0, 98.0, 89.0, 93.0, 79.0, 77.0, 84.0, 83.0, 80.0, 81.0, 90.0, 96.0, 94.0, 91.0, 99.0, 64.5, 94.0, 98.0, 57.5, 90.0, 73.0, 90.0, 90.0, 83.5, 89.0, 99.0, 83.5, 96.0], "slack": [-1.0, 0.0, -1.0, 0.0, 0.0, -1.0, 0.0, 0.0, -1.0, -1.0, 0.0, -1.0, 0.0, 0.0, 0.0, -1.0, 0.0, -1.0, -2.0, -1.0, 0.0, 0.0, 0.0, -1.0, -1.0, 0.0, -1.0, 0.0, 0.0, -1.0, 0.0, 0.0, 0.0, 0.0, -2.0, -2.0, -1.0, 0.0, 0.0, -1.0, -2.0, 0.0, 0.0, -3.0, 0.0, 0.0, -1.0, -1.0, -1.0, 0.0, 0.0, 0.0, -1.0, 0.0, 0.0, 0.0, 0.0, 0.0, 0.0, -1.0, 0.0, 0.0, -1.0, -3.0, 0.0, -1.0, 0.0, -2.0, -2.0, -2.0, -1.0, 0.0, 0.0, -2.0, 0.0, -1.0, 0.0, 0.0, 0.0, -2.0, 0.0, 0.0, 0.0, 0.0, 0.0, 0.0, -1.0, -2.0, -1.0, -1.0, -1.0, 0.0, 0.0, 0.0, 0.0, 0.0, 0.0, 0.0, 0.0, 0.0, 0.0, -1.0, 0.0, 0.0, 0.0, 0.0, 0.0, -1.0, 0.0, 0.0, 0.0, 0.0, -1.0, 0.0, 0.0, 0.0, -1.0, 0.0, -1.0, -1.0, 0.0, 0.0, 0.0, 0.0, 0.0, 0.0, -1.0, -1.0, 0.0, -1.0, 0.0, 0.0, -1.0, 0.0, 0.0, 0.0, -1.0, 0.0, 0.0, -1.0, 0.0, 0.0, 0.0, 0.0, -1.0, -1.0, -1.0, -1.0, 0.0, 0.0, 0.0, 0.0, -2.0, 0.0, -1.0, 0.0, -1.0, 0.0, 0.0, -1.0, 0.0, 0.0, 0.0, 0.0, -1.0, -1.0, -1.0, -1.0, 0.0, 0.0, -1.0, -1.0, 0.0, -3.0, 0.0, -2.0, -4.0, -1.0, -1.0, 0.0, 0.0, 0.0, -1.0, 0.0, -2.0, 0.0, 0.0, -2.0, 0.0, 0.0, 0.0, 0.0, 0.0, 0.0, -3.0, 0.0, 0.0, -2.0, 0.0, 0.0], "density": 0.019695, "feasible": true, "X_len": 60, "mode": "AAD", "factor": 0, "obj_val": 512.0, "x": [0.0, 1.0, 1.0, 0.0, 1.0, 1.0, 0.0, 1.0, 1.0, 1.0, 0.0, 1.0, 0.0, 1.0, 1.0, 0.0, 0.0, 1.0, 1.0, 0.0, 1.0, 0.0, 0.0, 1.0, 0.0, 1.0, 0.0, 1.0, 0.0, 0.0, 0.0, 0.0, 1.0, 1.0, 1.0, 0.0, 0.0, 1.0, 0.0, 1.0, 1.0, 1.0, 1.0, 0.0, 1.0, 1.0, 1.0, 0.0, 1.0, 0.0, 0.0, 0.0, 0.0, 1.0, 1.0, 0.0, 1.0, 0.0, 0.0, 0.0, 0.0, 0.0, 0.0, 0.0, 0.0, 0.0, 1.0, 1.0, 0.0, 0.0, 0.0, 1.0, 0.0, 0.0, 0.0, 1.0, 0.0, 0.0, 0.0, 0.0, 1.0, 0.0, 0.0, 0.0, 0.0, 0.0, 1.0, 0.0, 0.0, 0.0, 0.0, 0.0, 0.0, 0.0, 0.0, 0.0, 0.0, 0.0, 1.0, 1.0, 0.0, 0.0, 0.0, 0.0, 1.0, 0.0, 0.0, 0.0, 0.0, 1.0, 0.0, 0.0, 0.0, 0.0, 0.0, 0.0, 0.0, 0.0, 0.0, 0.0, 1.0, 0.0, 0.0, 0.0, 1.0, 1.0, 1.0, 0.0, 0.0, 0.0, 0.0, 0.0, 0.0, 0.0, 0.0, 0.0, 1.0, 1.0, 0.0, 0.0, 0.0, 0.0, 0.0, 0.0, 0.0, 0.0, 1.0, 0.0, 0.0, 0.0, 1.0, 0.0, 0.0, 0.0, 0.0, 1.0, 0.0, 1.0, 0.0, 1.0, 0.0, 0.0, 0.0, 0.0, 0.0, 0.0, 0.0, 0.0, 0.0, 0.0, 0.0, 0.0, 0.0, 0.0, 0.0, 0.0, 0.0, 0.0, 0.0, 0.0, 0.0, 1.0, 1.0, 1.0, 0.0, 0.0, 0.0, 0.0, 0.0, 0.0, 1.0, 0.0, 0.0, 0.0, 0.0, 0.0, 0.0, 0.0, 0.0, 0.0, 0.0, 0.0, 0.0, 0.0, 0.0, 0.0, 0.0, 0.0, 0.0, 0.0, 0.0, 0.0, 0.0, 0.0, 0.0, 0.0, 1.0, 0.0, 0.0, 0.0, 0.0, 0.0, 0.0, 1.0, 0.0, 0.0, 0.0, 0.0, 0.0, 1.0, 0.0, 0.0, 0.0, 0.0, 0.0, 0.0, 0.0, 0.0, 0.0, 0.0, 0.0, 0.0, 0.0, 0.0, 0.0, 0.0, 0.0, 0.0, 0.0, 0.0, 0.0, 0.0, 0.0, 0.0, 0.0, 0.0, 0.0, 0.0, 0.0, 0.0, 0.0, 0.0, 0.0, 0.0, 0.0, 0.0, 0.0, 0.0, 0.0, 0.0, 0.0, 0.0, 0.0, 0.0, 0.0, 0.0, 0.0, 0.0, 0.0, 0.0, 0.0, 0.0, 0.0, 0.0, 0.0, 0.0, 0.0, 0.0, 0.0, 0.0, 0.0, 0.0, 0.0, 0.0, 0.0, 0.0, 0.0, 1.0, 0.0, 0.0, 0.0, 0.0, 0.0, 0.0, 0.0, 0.0, 0.0, 0.0, 0.0, 0.0, 0.0, 0.0, 0.0, 0.0, 0.0, 0.0, 0.0, 0.0, 0.0, 0.0, 0.0, 0.0, 0.0, 0.0, 0.0, 0.0, 0.0, 0.0, 0.0, 0.0, 0.0, 0.0, 0.0, 0.0, 0.0, 0.0, 0.0, 0.0, 0.0, 0.0, 0.0, 0.0, 0.0, 0.0, 0.0, 0.0, 0.0, 0.0, 0.0, 0.0, 0.0, 0.0, 0.0, 0.0, 0.0, 0.0, 0.0, 0.0, 0.0, 0.0, 0.0, 0.0, 0.0, 0.0, 0.0, 0.0, 0.0, 0.0, 0.0, 0.0, 0.0, 0.0, 0.0, 0.0, 0.0, 0.0, 0.0, 0.0, 0.0, 0.0, 0.0, 0.0, 0.0, 0.0, 0.0, 0.0, 0.0, 0.0, 0.0, 0.0, 0.0, 0.0, 0.0, 0.0, 0.0, 0.0, 0.0, 0.0, 0.0, 0.0, 0.0, 0.0, 0.0, 0.0, 0.0, 0.0, 0.0, 0.0, 0.0, 0.0, 0.0, 0.0, 0.0, 0.0, 0.0, 0.0, 0.0, 0.0, 0.0, 0.0, 0.0, 0.0, 0.0, 0.0, 0.0, 0.0, 0.0, 0.0, 0.0, 0.0, 0.0, 0.0, 0.0, 0.0, 0.0, 0.0, 0.0, 0.0, 0.0, 0.0, 0.0, 0.0, 0.0, 0.0, 0.0, 0.0, 0.0, 0.0, 0.0, 0.0, 0.0, 0.0, 0.0, 0.0, 0.0, 0.0, 0.0, 0.0, 0.0, 0.0, 0.0, 0.0, 0.0, 0.0, 0.0, 0.0, 0.0, 0.0, 0.0, 0.0, 0.0, 0.0, 0.0, 0.0, 0.0, 0.0, 0.0, 0.0, 0.0, 0.0, 0.0, 0.0, 0.0, 0.0, 0.0, 0.0, 0.0, 0.0, 0.0, 0.0, 0.0, 0.0, 0.0, 0.0, 0.0, 0.0, 0.0, 0.0, 0.0, 0.0, 0.0, 0.0, 0.0, 0.0, 0.0, 0.0, 0.0, 0.0, 0.0, 0.0, 0.0, 0.0, 0.0, 0.0, 0.0, 0.0, 0.0, 0.0, 0.0, 0.0, 0.0, 0.0, 0.0, 0.0, 0.0, 0.0, 0.0, 0.0, 0.0, 0.0, 0.0, 0.0, 0.0, 0.0, 0.0, 0.0, 0.0, 0.0, 0.0, 0.0, 0.0, 0.0, 0.0, 0.0, 0.0, 0.0, 0.0, 0.0, 0.0, 0.0, 0.0, 0.0, 0.0, 0.0, 0.0, 0.0, 0.0, 0.0, 0.0, 0.0, 0.0, 0.0, 0.0, 0.0, 0.0, 0.0, 0.0, 0.0, 0.0, 0.0, 0.0, 0.0, 0.0, 0.0, 0.0, 0.0, 0.0, 0.0, 0.0, 0.0, 0.0, 0.0, 0.0, 0.0, 0.0, 0.0, 0.0, 0.0, 0.0, 0.0, 0.0, 0.0, 0.0, 0.0, 0.0, 0.0, 0.0, 0.0, 0.0, 0.0, 0.0, 0.0, 0.0, 0.0, 0.0, 0.0, 0.0, 0.0, 0.0, 0.0, 0.0, 0.0, 0.0, 0.0, 0.0, 0.0, 0.0, 0.0, 0.0, 0.0, 0.0, 0.0, 0.0, 0.0, 0.0, 0.0, 0.0, 0.0, 0.0, 0.0, 0.0, 0.0, 0.0, 0.0, 0.0, 0.0, 0.0, 0.0, 0.0, 0.0, 0.0, 0.0, 0.0, 0.0, 0.0, 0.0, 0.0, 0.0, 0.0, 0.0, 0.0, 0.0, 0.0, 0.0, 0.0, 0.0, 0.0, 0.0, 0.0, 0.0, 0.0, 0.0, 0.0, 0.0, 0.0, 0.0, 0.0, 0.0, 0.0, 0.0, 0.0, 0.0, 0.0, 0.0, 0.0, 0.0, 0.0, 0.0, 0.0, 0.0, 0.0, 0.0, 0.0, 0.0, 0.0, 0.0, 0.0, 0.0, 0.0, 0.0, 0.0, 0.0, 0.0, 0.0, 0.0, 0.0, 0.0, 0.0, 0.0, 0.0, 0.0, 0.0, 0.0, 0.0, 0.0, 0.0, 0.0, 0.0, 0.0, 0.0, 0.0, 0.0, 0.0, 0.0, 0.0, 0.0, 0.0, 0.0, 0.0, 0.0, 0.0, 0.0, 0.0, 0.0, 0.0, 0.0, 0.0, 0.0, 0.0, 0.0, 0.0, 0.0, 0.0, 0.0, 0.0, 0.0, 0.0, 0.0, 0.0, 0.0, 0.0, 0.0, 0.0, 0.0, 0.0, 0.0, 0.0, 0.0, 0.0, 0.0, 0.0, 0.0, 0.0, 0.0, 0.0, 0.0, 0.0, 0.0, 0.0, 0.0, 0.0, 0.0, 0.0, 0.0, 0.0, 0.0, 0.0, 0.0, 0.0, 0.0, 0.0, 0.0, 0.0, 0.0, 0.0, 0.0, 0.0, 0.0, 0.0, 0.0, 0.0, 0.0, 0.0, 0.0, 0.0, 0.0, 0.0, 0.0, 0.0, 0.0, 0.0, 0.0, 0.0, 0.0, 0.0, 0.0, 0.0, 0.0, 0.0, 0.0, 0.0, 0.0, 0.0, 0.0, 0.0, 0.0, 0.0, 0.0, 0.0, 0.0, 0.0, 0.0, 0.0, 0.0, 0.0, 0.0, 0.0, 0.0, 0.0, 0.0, 0.0, 0.0, 0.0, 0.0, 0.0, 0.0, 0.0, 0.0, 0.0, 0.0, 0.0, 0.0, 0.0, 0.0, 0.0, 0.0, 0.0, 0.0, 0.0, 0.0, 0.0, 0.0, 0.0, 0.0, 0.0, 0.0, 0.0, 0.0, 0.0, 0.0, 0.0, 0.0, 0.0, 0.0, 0.0, 0.0, 0.0, 0.0, 0.0, 0.0, 0.0, 0.0, 0.0, 0.0, 0.0, 0.0, 0.0, 0.0, 0.0, 0.0, 0.0, 0.0, 0.0, 0.0, 0.0, 0.0, 0.0, 0.0, 0.0, 0.0, 0.0, 0.0, 0.0, 0.0, 0.0, 0.0, 0.0, 0.0, 0.0, 0.0, 0.0, 0.0, 0.0, 0.0, 0.0, 0.0, 0.0, 0.0, 0.0, 0.0, 0.0, 0.0, 0.0, 0.0, 0.0, 0.0, 0.0, 0.0, 0.0, 0.0, 0.0, 0.0, 0.0, 0.0, 0.0, 0.0, 0.0, 0.0, 0.0, 0.0, 0.0, 0.0, 0.0, 0.0, 0.0, 0.0, 0.0, 0.0, 0.0, 0.0, 0.0, 0.0, 0.0, 0.0, 0.0, 0.0, 0.0, 0.0, 0.0, 0.0, 0.0, 0.0, 0.0, 0.0, 0.0, 0.0, 0.0, 0.0, 0.0, 0.0, 0.0, 0.0, 0.0, 0.0, 0.0, 0.0, 0.0, 0.0, 0.0, 0.0, 0.0, 0.0, 0.0, 0.0, 0.0, 0.0, 0.0, 0.0, 0.0, 0.0, 0.0, 0.0, 0.0, 0.0, 0.0, 0.0, 0.0, 0.0, 0.0, 0.0, 0.0, 0.0, 0.0, 0.0, 0.0, 0.0, 0.0, 0.0, 0.0, 0.0, 0.0, 0.0, 0.0, 0.0, 0.0, 0.0, 0.0, 0.0, 0.0, 0.0]}